50
    1   414   345
    2   642   693
    3   524   467
    4   172   100
    5   182   141
    6   313   291
    7   586   670
    8   809   781
    9     1    46
   10    62    59
   11   363   357
   12   117   100
   13   404   493
   14   702   661
   15   270   206
   16   199   254
   17   271   310
   18   451   425
   19   219   258
   20   389   407
   21   638   614
   22   327   313
   23   988   901
   24   576   496
   25   419   350
   26    33   121
   27   751   795
   28   588   617
   29   491   439
   30    79   104
   31   853   795
   32   189   141
   33   624   525
   34   409   414
   35   136    45
   36   729   762
   37   670   749
   38   522   518
   39   690   637
   40  1039   976
   41   321   416
   42   606   523
   43   217   247
   44   852   759
   45   443   416
   46   719   644
   47   365   395
   48   305   379
   49   243   216
   50   597   657
14685
